10127
1 1 1 0 1 1 1 1 0 0 0 0 0 1 0 1 0 0 0 0 
4 4 4 4 4 4 4 4 4 4 2 2 2 2 2 2 2 2 2 6 1 6 2 6 6 2 6 6 6 6 6 6 6 6 6 6 6 0 6 7 7 7 0 7 0 0 0 0 0 0 0 0 7 7 7 7 7 7 7 7 7 7 13 7 13 7 7 7 7 13 13 7 13 13 4 13 13 13 13 13 15 15 15 15 15 15 15 15 5 15 5 15 15 15 5 15 5 5 5 5 
